p ocr 20 20 40
1 21 
1 32
2 23
2 35
3 25
3 40
4 24
4 26
5 38
5 34
6 33 
6 27 
7 35
7 28
8 22
8 40
9 30
9 29
10 37
10 32
11 22
11 23
12 27 
12 21 
13 28
13 31
14 25
14 36 
15 26
15 30
16 34
16 39
17 33 
17 36 
18 31
18 24
19 29
19 38
20 39
20 37
